certificates/rado_a9_c249_N29.cnf
c Rad2 upper bound instance: x1 + 9*x2 - x3 = 249, interval [1,29]
p cnf 29 168
1 4 28 0
-1 -4 -28 0
1 13 29 0
-1 -13 -29 0
2 5 28 0
-2 -5 -28 0
2 14 29 0
-2 -14 -29 0
3 6 28 0
-3 -6 -28 0
3 15 29 0
-3 -15 -29 0
4 7 28 0
-4 -7 -28 0
4 16 29 0
-4 -16 -29 0
5 8 28 0
-5 -8 -28 0
5 17 29 0
-5 -17 -29 0
6 9 28 0
-6 -9 -28 0
6 18 29 0
-6 -18 -29 0
1 7 27 0
-1 -7 -27 0
7 10 28 0
-7 -10 -28 0
7 19 29 0
-7 -19 -29 0
2 8 27 0
-2 -8 -27 0
8 11 28 0
-8 -11 -28 0
8 20 29 0
-8 -20 -29 0
3 9 27 0
-3 -9 -27 0
9 12 28 0
-9 -12 -28 0
9 21 29 0
-9 -21 -29 0
4 10 27 0
-4 -10 -27 0
10 13 28 0
-10 -13 -28 0
10 22 29 0
-10 -22 -29 0
5 11 27 0
-5 -11 -27 0
11 14 28 0
-11 -14 -28 0
11 23 29 0
-11 -23 -29 0
6 12 27 0
-6 -12 -27 0
12 15 28 0
-12 -15 -28 0
12 24 29 0
-12 -24 -29 0
7 13 27 0
-7 -13 -27 0
13 16 28 0
-13 -16 -28 0
13 25 29 0
-13 -25 -29 0
8 14 27 0
-8 -14 -27 0
14 17 28 0
-14 -17 -28 0
14 26 29 0
-14 -26 -29 0
9 15 27 0
-9 -15 -27 0
15 18 28 0
-15 -18 -28 0
15 27 29 0
-15 -27 -29 0
1 16 26 0
-1 -16 -26 0
10 16 27 0
-10 -16 -27 0
16 19 28 0
-16 -19 -28 0
16 28 29 0
-16 -28 -29 0
2 17 26 0
-2 -17 -26 0
11 17 27 0
-11 -17 -27 0
17 20 28 0
-17 -20 -28 0
17 29 0
-17 -29 0
3 18 26 0
-3 -18 -26 0
12 18 27 0
-12 -18 -27 0
18 21 28 0
-18 -21 -28 0
4 19 26 0
-4 -19 -26 0
13 19 27 0
-13 -19 -27 0
19 22 28 0
-19 -22 -28 0
5 20 26 0
-5 -20 -26 0
14 20 27 0
-14 -20 -27 0
20 23 28 0
-20 -23 -28 0
6 21 26 0
-6 -21 -26 0
15 21 27 0
-15 -21 -27 0
21 24 28 0
-21 -24 -28 0
7 22 26 0
-7 -22 -26 0
16 22 27 0
-16 -22 -27 0
22 25 28 0
-22 -25 -28 0
8 23 26 0
-8 -23 -26 0
17 23 27 0
-17 -23 -27 0
23 26 28 0
-23 -26 -28 0
9 24 26 0
-9 -24 -26 0
18 24 27 0
-18 -24 -27 0
24 27 28 0
-24 -27 -28 0
1 25 0
-1 -25 0
10 25 26 0
-10 -25 -26 0
19 25 27 0
-19 -25 -27 0
25 28 0
-25 -28 0
2 25 26 0
-2 -25 -26 0
11 26 0
-11 -26 0
20 26 27 0
-20 -26 -27 0
26 28 29 0
-26 -28 -29 0
3 25 27 0
-3 -25 -27 0
12 26 27 0
-12 -26 -27 0
21 27 0
-21 -27 0
4 25 28 0
-4 -25 -28 0
13 26 28 0
-13 -26 -28 0
22 27 28 0
-22 -27 -28 0
5 25 29 0
-5 -25 -29 0
23 27 29 0
-23 -27 -29 0
