certificates/rado_a9_c249_N29.drat
-28 -29 0
d -26 -28 -29 0
-29 0
17 0
28 0
-25 0
-14 0
-20 0
1 0
13 0
5 0
2 0
26 0
8 0
27 0
-4 0
-10 0
-16 0
0
